true true true
feasible solution found by trivial heuristic after 0.0 seconds, objective value 5.700000e+01
presolving:
presolving (0 rounds: 0 fast, 0 medium, 0 exhaustive):
 0 deleted vars, 0 deleted constraints, 0 added constraints, 0 tightened bounds, 0 added holes, 0 changed sides, 0 changed coefficients
 0 implications, 0 cliques
presolved problem has 57 variables (57 bin, 0 int, 0 impl, 0 cont) and 48 constraints
     48 constraints of type <linear>
transformed objective value is always integral (scale: 1)
Presolving Time: 0.00
transformed 1/1 original solutions to the transformed problem space

 time | node  | left  |LP iter|LP it/n|mem/heur|mdpt |vars |cons |rows |cuts |sepa|confs|strbr|  dualbound   | primalbound  |  gap   | compl. 
p 0.0s|     1 |     0 |     0 |     - |   locks|   0 |  57 |  48 |  48 |   0 |  0 |   0 |   0 |      --      | 9.000000e+00 |    Inf | unknown
 time | node  | left  |LP iter|LP it/n|mem/heur|mdpt |vars |cons |rows |cuts |sepa|confs|strbr|  dualbound   | primalbound  |  gap   | compl. 
  0.0s|     1 |     0 |    23 |     - |  1556k |   0 | 283 |  48 |  48 |   0 |  0 |   0 |   0 | 1.000000e+00 | 9.000000e+00 | 800.00%| unknown
 time | node  | left  |LP iter|LP it/n|mem/heur|mdpt |vars |cons |rows |cuts |sepa|confs|strbr|  dualbound   | primalbound  |  gap   | compl. 
  1.0s|     1 |     0 |   451 |     - |  6263k |   0 |1853 |  48 |  48 |   0 |  0 |   0 |   0 | 8.000000e+00 | 9.000000e+00 |  12.50%| unknown
 time | node  | left  |LP iter|LP it/n|mem/heur|mdpt |vars |cons |rows |cuts |sepa|confs|strbr|  dualbound   | primalbound  |  gap   | compl. 
  1.1s|     1 |     2 |   543 |     - |  7094k |   0 |1853 |  48 |  48 |   0 |  1 |   0 |   0 | 8.000000e+00 | 9.000000e+00 |  12.50%| unknown
 time | node  | left  |LP iter|LP it/n|mem/heur|mdpt |vars |cons |rows |cuts |sepa|confs|strbr|  dualbound   | primalbound  |  gap   | compl. 
  1.3s|     2 |     3 |   585 |  42.0 |  7212k |   1 |1882 |  48 |  48 |   0 |  1 |   0 |   0 | 8.000000e+00 | 9.000000e+00 |  12.50%| unknown
 time | node  | left  |LP iter|LP it/n|mem/heur|mdpt |vars |cons |rows |cuts |sepa|confs|strbr|  dualbound   | primalbound  |  gap   | compl. 
  1.5s|     3 |     4 |   623 |  40.0 |  7349k |   2 |1896 |  48 |  48 |   0 |  1 |   0 |   0 | 8.000000e+00 | 9.000000e+00 |  12.50%| unknown
 time | node  | left  |LP iter|LP it/n|mem/heur|mdpt |vars |cons |rows |cuts |sepa|confs|strbr|  dualbound   | primalbound  |  gap   | compl. 
  1.6s|     4 |     3 |   640 |  32.3 |  7780k |   2 |1896 |  48 |  48 |   0 |  0 |   0 |   0 | 8.000000e+00 | 9.000000e+00 |  12.50%| unknown
 time | node  | left  |LP iter|LP it/n|mem/heur|mdpt |vars |cons |rows |cuts |sepa|confs|strbr|  dualbound   | primalbound  |  gap   | compl. 
  1.6s|     5 |     4 |   671 |  32.0 |  7828k |   2 |1896 |  48 |  48 |   0 |  1 |   0 |   0 | 8.000000e+00 | 9.000000e+00 |  12.50%|   9.17%
 time | node  | left  |LP iter|LP it/n|mem/heur|mdpt |vars |cons |rows |cuts |sepa|confs|strbr|  dualbound   | primalbound  |  gap   | compl. 
  1.9s|     6 |     3 |   690 |  29.4 |  7868k |   2 |1899 |  48 |  48 |   0 |  0 |   0 |   0 | 8.000000e+00 | 9.000000e+00 |  12.50%|   9.17%
 time | node  | left  |LP iter|LP it/n|mem/heur|mdpt |vars |cons |rows |cuts |sepa|confs|strbr|  dualbound   | primalbound  |  gap   | compl. 
  2.1s|     7 |     2 |   767 |  37.3 |  8130k |   2 |1918 |  48 |  48 |   0 |  0 |   0 |   0 | 8.000000e+00 | 9.000000e+00 |  12.50%|  18.34%
 time | node  | left  |LP iter|LP it/n|mem/heur|mdpt |vars |cons |rows |cuts |sepa|confs|strbr|  dualbound   | primalbound  |  gap   | compl. 
  2.5s|     8 |     3 |   806 |  37.6 |  8525k |   3 |1938 |  48 |  48 |   0 |  1 |   0 |   0 | 8.000000e+00 | 9.000000e+00 |  12.50%|  59.17%
 time | node  | left  |LP iter|LP it/n|mem/heur|mdpt |vars |cons |rows |cuts |sepa|confs|strbr|  dualbound   | primalbound  |  gap   | compl. 
  2.5s|     9 |     4 |   818 |  34.4 |  8535k |   4 |1938 |  48 |  48 |   0 |  1 |   0 |   0 | 8.000000e+00 | 9.000000e+00 |  12.50%|  59.17%
 time | node  | left  |LP iter|LP it/n|mem/heur|mdpt |vars |cons |rows |cuts |sepa|confs|strbr|  dualbound   | primalbound  |  gap   | compl. 
  2.6s|    10 |     5 |   840 |  33.0 |  8539k |   4 |1938 |  48 |  48 |   0 |  1 |   0 |   0 | 8.000000e+00 | 9.000000e+00 |  12.50%|  59.17%
 time | node  | left  |LP iter|LP it/n|mem/heur|mdpt |vars |cons |rows |cuts |sepa|confs|strbr|  dualbound   | primalbound  |  gap   | compl. 
r 2.7s|    11 |     0 |   844 |  30.1 |simplero|   5 |1938 |  48 |  48 |   0 |  0 |   0 |   0 | 8.000000e+00 | 8.000000e+00 |   0.00%|  98.85%

SCIP Status        : problem is solved [optimal solution found]
Solving Time (sec) : 2.68
Solving Nodes      : 11
Primal Bound       : +8.00000000000000e+00 (19 solutions)
Dual Bound         : +8.00000000000000e+00
Gap                : 0.00 %
Running with parallel: True bidir: True symbreak: True
Number of Nodes:  48
48.95833333333333% holds
starting cheapest insertion heuristic
Heuristic without TSP improvement:  10
Heuristic without TSP improvement time:  0.1
Heuristic Sol:  9
Heuristic total time:  0.1
[[20, 19, 7, 12, 6], [21, 44, 17, 4, 43, 16], [32, 26, 45, 25, 14, 5, 24], [34, 42, 13, 18, 30], [8, 23, 41, 39, 29], [35, 10, 27, 46, 36, 3, 22], [47, 31], [40, 38, 15, 1, 0, 11, 33], [37, 9, 28, 2]]
Instance path:  /home/htc/mghannam/SCRATCH/lccp-rust/data/t84_att48.npcc
Timelimit:  7200
Heuristic without TSP improvement:  10
Heuristic without TSP improvement time:  0.1
Heuristic Sol:  9
Heuristic total time:  0.4
at 1 zero_duals: 39
at1, LP obj: 9.0 n_added_paths: 226
at 1 zero_duals: 33
at1, LP obj: 9.0 n_added_paths: 12
at 1 zero_duals: 28
at1, LP obj: 9.0 n_added_paths: 43
at 1 zero_duals: 25
at1, LP obj: 9.0 n_added_paths: 38
at 1 zero_duals: 15
at1, LP obj: 8.857142857142858 n_added_paths: 138
at 1 zero_duals: 10
Switching to elementary pricing
at1, LP obj: 8.666666666666666 n_added_paths: 311
at 1 zero_duals: 13
Switching to elementary pricing
at1, LP obj: 8.666666666666666 n_added_paths: 202
at 1 zero_duals: 8
Switching to elementary pricing
at1, LP obj: 8.666666666666668 n_added_paths: 282
at 1 zero_duals: 11
Switching to elementary pricing
at1, LP obj: 8.428571428571429 n_added_paths: 203
at 1 zero_duals: 6
Switching to elementary pricing
at1, LP obj: 8.3545197740113 n_added_paths: 147
updated lowerbound from 1.0 to 4
at 1 zero_duals: 9
Switching to elementary pricing
at1, LP obj: 8.238095238095237 n_added_paths: 102
updated lowerbound from 4.0 to 6
at 1 zero_duals: 6
Switching to elementary pricing
at1, LP obj: 8.104895104895105 n_added_paths: 51
updated lowerbound from 6.0 to 8
at 1 zero_duals: 8
Switching to elementary pricing
at1, LP obj: 8.041666666666668 n_added_paths: 28
at 1 zero_duals: 6
Switching to elementary pricing
at1, LP obj: 8.011904761904761 n_added_paths: 13
Gap too small = 0, stopping pricing with lb = 8
at 2 zero_duals: 8
Switching to elementary pricing
at2, LP obj: 8.03409090909091 n_added_paths: 8
at 2 zero_duals: 6
Switching to elementary pricing
at2, LP obj: 8.008771929824562 n_added_paths: 21
Gap too small = 0, stopping pricing with lb = 8
at 4 zero_duals: 8
Switching to elementary pricing
at4, LP obj: 8.011784511784512 n_added_paths: 14
Gap too small = 0, stopping pricing with lb = 8
at 5 zero_duals: 47
Switching to elementary pricing
at5, LP obj: 1e+20 n_added_paths: 0
updated lowerbound from 8.0 to 100000000000000000000
Gap too small = 0, stopping pricing with lb = 8
at 8 zero_duals: 6
Switching to elementary pricing
at8, LP obj: 8.013020833333334 n_added_paths: 3
at 8 zero_duals: 6
Switching to elementary pricing
at8, LP obj: 8.00925925925926 n_added_paths: 0
updated lowerbound from 8.0 to 9
at 9 zero_duals: 17
Switching to elementary pricing
at9, LP obj: 8.166666666666666 n_added_paths: 13
at 9 zero_duals: 17
Switching to elementary pricing
at9, LP obj: 8.166666666666666 n_added_paths: 3
at 9 zero_duals: 14
Switching to elementary pricing
at9, LP obj: 8.157894736842104 n_added_paths: 3
updated lowerbound from 8.0 to 9
at 6 zero_duals: 6
Switching to elementary pricing
at6, LP obj: 8.031825795644892 n_added_paths: 14
at 6 zero_duals: 5
Switching to elementary pricing
at6, LP obj: 8.016260162601625 n_added_paths: 6
Gap too small = 0, stopping pricing with lb = 8
Gap too small = 0, stopping pricing with lb = 8
Gap too small = 0, stopping pricing with lb = 8
Gap too small = 0, stopping pricing with lb = 8
Best solution found:
t_[34, 42, 13, 18, 30, 34] 1.0 1.0
checking cycle [34, 42, 13, 18, 30, 34]
[34, 42, 13, 18, 30, 34] 1458 1397
[47, 31, 20, 6, 47] 1.0 1.0
checking cycle [47, 31, 20, 6, 47]
[47, 31, 20, 6, 47] 1334 1302
[41, 35, 22, 3, 39, 23, 41] 1.0 1.0
checking cycle [41, 35, 22, 3, 39, 23, 41]
[41, 35, 22, 3, 39, 23, 41] 1536 1429
[28, 9, 21, 16, 2, 28] 1.0 1.0
checking cycle [28, 9, 21, 16, 2, 28]
[28, 9, 21, 16, 2, 28] 1782 1649
[44, 17, 43, 4, 8, 5, 24, 44] 1.0 1.0
checking cycle [44, 17, 43, 4, 8, 5, 24, 44]
[44, 17, 43, 4, 8, 5, 24, 44] 1446 1334
[37, 19, 7, 12, 37] 1.0 1.0
checking cycle [37, 19, 7, 12, 37]
[37, 19, 7, 12, 37] 1675 1674
[45, 26, 25, 29, 14, 32, 45] 1.0 1.0
checking cycle [45, 26, 25, 29, 14, 32, 45]
[45, 26, 25, 29, 14, 32, 45] 1377 1275
[46, 36, 10, 27, 40, 11, 33, 38, 15, 1, 0, 46] 1.0 1.0
checking cycle [46, 36, 10, 27, 40, 11, 33, 38, 15, 1, 0, 46]
[46, 36, 10, 27, 40, 11, 33, 38, 15, 1, 0, 46] 1375 1351
